
Log started (V11.0.0) Wed May 14 13:23:08 2008

Tried aggregator 1 time.
Reduced MIP has 130 rows, 3001 columns, and 6030 nonzeros.
Presolve time =    0.03 sec.
Clique table members: 100.
MIP emphasis: balance optimality and feasibility.
MIP search method: dynamic search.
Parallel mode: none, using 1 thread.
Root relaxation solution time =    0.06 sec.

        Nodes                                         Cuts/
   Node  Left     Objective  IInf  Best Integer     Best Node    ItCnt     Gap

*     0+    0                         7537.0000      116.7856      327   98.45%
*     0+    0                          158.0000      116.7856      327   26.09%
      0     0      117.8271    55      158.0000      Fract: 6      376   25.43%
*     0+    0                          152.0000      117.8271      376   22.48%
      0     0      124.2798    60      152.0000      Cuts: 31      753   18.24%
*     0+    0                          149.0000      124.2798      753   16.59%
      0     0      124.5398    60      149.0000      Cuts: 16      823   16.42%
*     0+    0                          143.0000      124.5398      823   12.91%
      0     0      125.0181    55      143.0000      Cuts: 11      872   12.57%
      0     0      125.3972    58      143.0000       Cuts: 9      934   12.31%
*     0+    0                          142.0000      125.3972      934   11.69%
      0     0      125.7278    56      142.0000       Cuts: 7      974   11.46%
      0     0      125.7314    67      142.0000       Cuts: 6      992   11.46%
      0     0      126.1214    67      142.0000       Cuts: 6      998   11.18%
      0     0      126.1214    65      142.0000       Cuts: 2     1011   11.18%
*     0+    0                          141.0000      126.1214     1011   10.55%
*     0+    0                          139.0000      126.1214     1011    9.27%
*     0+    0                          135.0000      126.1214     1011    6.58%
      0     2      126.1214    65      135.0000      126.1214     1011    6.58%
    100    84      128.0000    27      135.0000      126.4772     4258    6.31%
    200   167      129.0000    23      135.0000      126.4772     6249    6.31%
    300   226      132.1717    22      135.0000      126.4772     7453    6.31%
    400   273        cutoff            135.0000      126.4772     8230    6.31%
*   419+  252                          134.0000      126.4772     8307    5.61%
    500   329      127.7154    46      134.0000      127.0000     9852    5.22%
*   529+  237                          132.0000      130.7713    11297    0.93%

Clique cuts applied:  2
Cover cuts applied:  24
Implied bound cuts applied:  1
Mixed integer rounding cuts applied:  13

Solution pool: 11 solutions saved.

MIP - Integer optimal solution:  Objective = 1.3200000000e+002
Solution time =    7.06 sec.  Iterations = 11297  Nodes = 529 (237)


Incumbent solution
Variable Name           Solution Value
Cmax                        132.000000
X_1_3                         1.000000
X_2_20                        1.000000
X_3_4                         1.000000
X_4_14                        1.000000
X_5_2                         1.000000
X_6_29                        1.000000
X_7_2                         1.000000
X_8_18                        1.000000
X_9_18                        1.000000
X_10_29                       1.000000
X_11_6                        1.000000
X_12_24                       1.000000
X_13_22                       1.000000
X_14_29                       1.000000
X_15_16                       1.000000
X_16_15                       1.000000
X_17_30                       1.000000
X_18_15                       1.000000
X_19_2                        1.000000
X_20_9                        1.000000
X_21_10                       1.000000
X_22_10                       1.000000
X_23_1                        1.000000
X_24_29                       1.000000
X_25_17                       1.000000
X_26_29                       1.000000
X_27_2                        1.000000
X_28_20                       1.000000
X_29_2                        1.000000
X_30_9                        1.000000
X_31_2                        1.000000
X_32_29                       1.000000
X_33_2                        1.000000
X_34_2                        1.000000
X_35_29                       1.000000
X_36_20                       1.000000
X_37_1                        1.000000
X_38_16                       1.000000
X_39_9                        1.000000
X_40_20                       1.000000
X_41_4                        1.000000
X_42_18                       1.000000
X_43_29                       1.000000
X_44_11                       1.000000
X_45_2                        1.000000
X_46_15                       1.000000
X_47_4                        1.000000
X_48_12                       1.000000
X_49_23                       1.000000
X_50_1                        1.000000
X_51_2                        1.000000
X_52_2                        1.000000
X_53_29                       1.000000
X_54_29                       1.000000
X_55_14                       1.000000
X_56_12                       1.000000
X_57_19                       1.000000
X_58_23                       1.000000
X_59_23                       1.000000
X_60_17                       1.000000
X_61_6                        1.000000
X_62_5                        1.000000
X_63_4                        1.000000
X_64_16                       1.000000
X_65_30                       1.000000
X_66_13                       1.000000
X_67_24                       1.000000
X_68_2                        1.000000
X_69_27                       1.000000
X_70_28                       1.000000
X_71_8                        1.000000
X_72_29                       1.000000
X_73_17                       1.000000
X_74_4                        1.000000
X_75_15                       1.000000
X_76_29                       1.000000
X_77_2                        1.000000
X_78_6                        1.000000
X_79_4                        1.000000
X_80_14                       1.000000
X_81_4                        1.000000
X_82_5                        1.000000
X_83_2                        1.000000
X_84_7                        1.000000
X_85_15                       1.000000
X_86_25                       1.000000
X_87_19                       1.000000
X_88_29                       1.000000
X_89_2                        1.000000
X_90_2                        1.000000
X_91_14                       1.000000
X_92_26                       1.000000
X_93_21                       1.000000
X_94_19                       1.000000
X_95_2                        1.000000
X_96_2                        1.000000
X_97_22                       1.000000
X_98_20                       1.000000
X_99_12                       1.000000
X_100_1                       1.000000
All other variables in the range 1-3001 are 0.
